unsat
(define-fun inv ((s (_ BitVec 4)) (t (_ BitVec 4))) (_ BitVec 4) (bvadd t #b0001))
0.43user 0.00system 0:00.44elapsed 100%CPU (0avgtext+0avgdata 34228maxresident)k
8inputs+8outputs (0major+3238minor)pagefaults 0swaps
